0 127 207
1 129 218
2 160 235
3 150 243
4 243 245
5 242 248
6 246 252
7 177 251
8 118 251
9 133 251
10 232 253
11 253 256
12 252 257
13 244 256
14 254 256
15 255 256
16 242 256
17 255 255
18 227 255
19 253 257
20 218 257
21 227 257
22 241 255
23 254 255
24 242 253
25 253 253
26 250 253
27 227 253
28 193 251
29 229 253
30 219 252
31 253 253
32 249 251
33 249 251
34 248 250
35 108 249
36 240 250
37 199 253
38 212 253
39 246 255
40 214 254
41 251 255
42 237 255
43 252 255
44 254 254
45 253 253
46 207 252
47 225 253
48 252 252
49 249 251
50 250 250
51 250 250
52 249 249
53 239 248
54 184 246
55 213 244
56 229 242
57 229 243
58 240 242
59 207 241
60 234 239
61 239 239
62 220 238
63 224 236
64 235 237
65 227 236
66 234 234
67 233 236
68 236 237
69 222 236
70 202 233
71 142 233
72 148 232
73 141 232
74 199 233
75 234 235
76 147 235
77 227 237
78 219 238
79 199 239
80 149 238
81 224 240
82 112 239
83 97 238
84 226 239
85 234 241
86 236 240
87 234 239
88 232 238
89 143 238
90 231 237
91 131 238
92 133 238
93 228 239
94 232 239
95 219 239
96 238 238
97 228 237
98 208 237
99 200 237
100 233 236
101 232 234
102 232 232
103 183 230
104 116 230
105 187 230
106 218 230
107 223 231
108 193 230
109 214 229
110 227 227
111 225 228
112 196 227
113 178 226
114 221 227
115 203 227
116 223 226
117 210 225
118 211 224
119 191 223
120 202 224
121 80 223
122 160 224
123 202 226
124 222 228
125 227 228
126 188 227
127 179 227
128 177 230
129 203 229
130 61 229
131 207 230
132 206 230
133 171 230
134 223 232
135 82 235
136 228 236
137 218 238
138 204 239
139 239 239
140 217 238
141 203 237
142 185 235
143 196 235
144 209 234
145 172 235
146 221 235
147 229 234
148 178 233
149 230 231
150 224 230
151 205 230
152 228 228
153 192 226
154 226 226
155 225 225
156 224 224
157 90 224
158 155 224
159 85 226
160 194 225
161 218 225
162 220 224
163 211 223
164 220 222
165 219 221
166 193 220
167 200 219
168 219 219
169 218 218
170 217 217
171 154 217
172 202 215
173 204 216
174 213 216
175 110 215
176 203 213
177 203 214
178 192 214
179 213 214
180 213 213
181 213 213
182 209 213
183 163 212
184 211 213
185 170 212
186 205 212
187 211 212
188 210 211
189 209 210
190 210 210
191 210 210
192 204 209
193 193 208
194 206 206
195 191 205
196 190 203
197 134 203
198 188 205
199 200 205
200 204 205
201 185 204
202 106 203
203 200 204
204 204 204
205 188 203
206 195 202
207 156 202
208 197 201
209 188 201
210 195 201
211 71 201
212 193 200
213 147 201
214 188 201
215 136 203
216 176 205
217 203 205
218 157 204
219 181 202
220 181 201
221 187 200
222 110 199
223 178 198
224 176 196
225 175 194
226 190 192
227 99 192
228 36 192
229 160 193
230 186 193
231 144 192
232 194 199
233 57 199
234 200 201
235 193 200
236 123 201
237 193 201
238 199 200
239 199 199
240 197 198
241 197 198
242 180 197
243 183 196
244 195 196
245 169 196
246 162 195
247 192 193
248 186 191
249 185 190
250 190 190
251 186 189
252 172 189
253 178 190
254 151 191
255 178 190
256 188 189
257 185 188
258 163 187
259 185 188
260 186 190
261 178 190
262 172 189
263 187 187
264 173 186
265 183 185
266 75 184
267 73 182
268 111 183
269 144 188
270 187 188
271 186 187
272 181 187
273 175 188
274 152 189
275 164 190
276 169 189
277 142 188
278 167 187
279 166 187
280 184 188
281 179 187
282 182 186
283 175 185
284 128 183
285 163 183
286 173 181
287 162 180
288 78 179
289 169 180
290 141 190
291 128 193
292 183 193
293 165 192
294 189 192
295 193 193
296 161 192
297 140 191
298 188 190
299 188 189
300 187 187
301 187 188
302 186 187
303 164 186
304 158 184
305 176 184
306 129 182
307 181 181
308 172 180
309 18 179
310 96 178
311 173 176
312 164 174
313 162 175
314 123 173
315 35 171
316 170 170
317 170 170
318 49 169
319 170 170
320 159 169
321 18 168
322 56 167
323 110 168
324 164 168
325 161 168
326 167 167
327 115 167
328 143 166
329 148 165
330 121 165
331 160 166
332 125 165
333 105 163
334 134 162
335 141 162
336 149 161
337 159 160
338 49 158
339 33 158
340 159 159
341 60 161
342 155 160
343 151 160
344 80 159
345 64 158
346 151 159
347 140 159
348 159 159
349 124 158
350 158 158
351 134 157
352 84 157
353 151 155
354 37 153
355 148 152
356 152 152
357 106 152
358 152 152
359 76 151
360 152 153
361 150 152
362 150 151
363 137 151
364 147 150
365 145 152
366 103 150
367 110 148
368 66 147
369 140 146
370 146 146
371 147 147
372 137 147
373 4 145
374 17 148
375 145 148
376 147 147
377 118 146
378 100 146
379 118 146
380 116 144
381 139 143
382 89 141
383 28 140
384 138 139
385 126 138
386 129 137
387 131 136
388 118 135
389 93 133
390 113 134
391 9 132
392 17 131
393 96 133
394 111 136
395 124 135
396 114 133
397 124 133
398 131 134
399 131 133
400 92 132
401 3 131
402 15 133
403 31 140
404 135 144
405 117 145
406 138 146
407 144 147
408 146 146
409 141 145
410 144 145
411 142 144
412 143 144
413 76 144
414 108 144
415 121 144
416 115 143
417 142 143
418 102 142
419 141 141
420 139 141
421 138 140
422 127 139
423 133 138
424 135 138
425 135 137
426 134 136
427 133 135
428 123 134
429 134 134
430 124 134
431 124 133
432 132 134
433 134 134
434 89 133
435 104 132
436 89 133
437 5 131
438 122 138
439 19 146
440 132 148
441 105 148
442 147 148
443 140 147
444 137 146
445 85 148
446 126 147
447 145 146
448 143 145
449 124 145
450 144 145
451 138 144
452 127 144
453 124 142
454 140 141
455 117 140
456 127 139
457 115 140
458 138 141
459 117 139
460 140 140
461 137 138
462 137 138
463 137 137
464 134 136
465 118 136
466 135 135
467 135 135
468 135 135
469 127 134
470 101 132
471 103 132
472 117 132
473 131 131
474 107 130
475 100 128
476 126 126
477 104 126
478 119 124
479 106 125
480 126 126
481 85 124
482 119 125
483 123 126
484 105 124
485 121 123
486 121 121
487 118 124
488 122 125
489 124 125
490 125 125
491 114 125
492 123 125
493 125 125
494 123 123
495 107 124
496 116 124
497 117 122
498 101 121
499 119 120
500 119 119
501 81 118
502 113 117
503 92 120
504 106 119
505 102 119
506 2 120
507 3 119
508 102 118
509 117 117
510 89 116
511 102 115
512 103 114
513 90 113
514 43 112
515 70 111
516 109 110
517 106 108
518 107 107
519 106 107
520 70 106
521 89 105
522 90 104
523 104 105
524 104 104
525 103 103
526 89 102
527 68 99
528 95 100
529 95 99
530 85 100
531 101 101
532 99 101
533 92 100
534 99 99
535 99 99
536 61 98
537 91 95
538 83 93
539 80 93
540 83 91
541 75 91
542 91 93
543 84 93
544 78 93
545 84 91
546 90 90
547 90 90
548 89 89
549 84 89
550 85 89
551 75 89
552 90 90
553 73 89
554 65 88
555 86 87
556 88 88
557 87 87
558 86 86
559 84 85
560 84 84
561 80 83
562 80 81
563 60 80
564 80 80
565 79 79
566 63 78
567 75 76
568 69 75
569 73 74
570 54 75
571 59 75
572 75 75
573 75 75
574 71 75
575 66 74
576 69 72
577 55 70
578 58 69
579 69 69
580 68 70
581 68 71
582 63 70
583 57 70
584 61 70
585 59 67
586 52 66
587 59 66
588 64 66
589 59 66
590 59 64
591 41 64
592 61 63
593 52 60
594 59 61
595 56 63
596 47 63
597 60 62
598 54 61
599 58 60
600 50 60
601 28 58
602 55 57
603 24 56
604 55 55
605 57 57
606 20 53
607 50 51
608 48 48
609 30 46
610 38 43
611 19 41
612 30 38
613 29 34
614 34 35
615 28 33
616 33 34
617 27 36
618 29 35
619 32 33
620 27 32
621 32 32
622 27 32
623 31 32
624 28 32
625 29 31
626 31 31
627 27 30
628 31 31
629 30 30
630 23 33
631 25 32
632 20 30
633 24 29
634 28 29
635 27 28
636 27 28
637 3 31
638 28 28
639 25 25
640 20 25
641 24 24
642 20 23
643 21 22
644 19 21
645 18 21
646 19 19
647 19 19
648 16 18
649 12 18
650 11 16
651 14 15
652 1 13
653 11 12
654 8 12
655 7 9
656 4 9
657 4 9
658 5 8
659 5 7
660 5 7
661 6 7
662 3 9
663 9 9
664 4 8
665 3 6
666 5 8
667 6 6
668 5 5
669 5 5
670 3 5
671 1 4
672 2 4
673 1 1

